p cnf 181 433
1 0
14 -15 0
-14 15 0
16 -17 0
-16 17 0
13 -14 0
13 -16 0
-13 14 16 0
19 15 0
-19 -15 0
20 -17 0
-20 17 0
18 -19 0
18 -20 0
-18 19 20 0
-12 13 0
-12 18 0
12 -13 -18 0
23 -24 0
-23 24 0
25 -26 0
-25 26 0
22 -23 0
22 -25 0
-22 23 25 0
28 24 0
-28 -24 0
29 -26 0
-29 26 0
27 -28 0
27 -29 0
-27 28 29 0
-21 22 0
-21 27 0
21 -22 -27 0
11 -12 0
11 -21 0
-11 12 21 0
32 -33 0
-32 33 0
34 -35 0
-34 35 0
31 -32 0
31 -34 0
-31 32 34 0
37 33 0
-37 -33 0
38 -35 0
-38 35 0
36 -37 0
36 -38 0
-36 37 38 0
-30 31 0
-30 36 0
30 -31 -36 0
10 -11 0
10 -30 0
-10 11 30 0
41 -42 0
-41 42 0
43 -44 0
-43 44 0
40 -41 0
40 -43 0
-40 41 43 0
46 42 0
-46 -42 0
47 -44 0
-47 44 0
45 -46 0
45 -47 0
-45 46 47 0
-39 40 0
-39 45 0
39 -40 -45 0
9 -10 0
9 -39 0
-9 10 39 0
-48 9 0
48 -9 0
-8 9 0
-8 48 0
8 -9 -48 0
-49 9 0
49 -9 0
-7 8 0
-7 49 0
7 -8 -49 0
-50 9 0
50 -9 0
-6 7 0
-6 50 0
6 -7 -50 0
55 -42 0
-55 42 0
56 44 0
-56 -44 0
-54 55 0
-54 56 0
54 -55 -56 0
58 -15 0
-58 15 0
59 17 0
-59 -17 0
-57 58 0
-57 59 0
57 -58 -59 0
-53 54 0
-53 57 0
53 -54 -57 0
62 42 0
-62 -42 0
63 -44 0
-63 44 0
-61 62 0
-61 63 0
61 -62 -63 0
-64 57 0
64 -57 0
-60 61 0
-60 64 0
60 -61 -64 0
52 -53 0
52 -60 0
-52 53 60 0
67 42 0
-67 -42 0
68 44 0
-68 -44 0
-66 67 0
-66 68 0
66 -67 -68 0
70 15 0
-70 -15 0
71 -17 0
-71 17 0
-69 70 0
-69 71 0
69 -70 -71 0
-65 66 0
-65 69 0
65 -66 -69 0
51 -52 0
51 -65 0
-51 52 65 0
-5 6 0
-5 51 0
5 -6 -51 0
-76 9 0
76 -9 0
-79 21 0
79 -21 0
-80 30 0
80 -30 0
78 -79 0
78 -80 0
-78 79 80 0
-81 39 0
81 -39 0
77 -78 0
77 -81 0
-77 78 81 0
-75 76 0
-75 77 0
75 -76 -77 0
-82 77 0
82 -77 0
-74 75 0
-74 82 0
74 -75 -82 0
-83 77 0
83 -77 0
-73 74 0
-73 83 0
73 -74 -83 0
-87 54 0
87 -54 0
89 -24 0
-89 24 0
90 26 0
-90 -26 0
-88 89 0
-88 90 0
88 -89 -90 0
-86 87 0
-86 88 0
86 -87 -88 0
-92 61 0
92 -61 0
-93 88 0
93 -88 0
-91 92 0
-91 93 0
91 -92 -93 0
85 -86 0
85 -91 0
-85 86 91 0
-95 66 0
95 -66 0
97 24 0
-97 -24 0
98 -26 0
-98 26 0
-96 97 0
-96 98 0
96 -97 -98 0
-94 95 0
-94 96 0
94 -95 -96 0
84 -85 0
84 -94 0
-84 85 94 0
-72 73 0
-72 84 0
72 -73 -84 0
4 -5 0
4 -72 0
-4 5 72 0
-102 75 0
102 -75 0
-104 30 0
104 -30 0
-105 39 0
105 -39 0
103 -104 0
103 -105 0
-103 104 105 0
-101 102 0
-101 103 0
101 -102 -103 0
-106 103 0
106 -103 0
-100 101 0
-100 106 0
100 -101 -106 0
-110 54 0
110 -54 0
112 -33 0
-112 33 0
113 35 0
-113 -35 0
-111 112 0
-111 113 0
111 -112 -113 0
-109 110 0
-109 111 0
109 -110 -111 0
-115 61 0
115 -61 0
-116 111 0
116 -111 0
-114 115 0
-114 116 0
114 -115 -116 0
108 -109 0
108 -114 0
-108 109 114 0
-118 66 0
118 -66 0
120 33 0
-120 -33 0
121 -35 0
-121 35 0
-119 120 0
-119 121 0
119 -120 -121 0
-117 118 0
-117 119 0
117 -118 -119 0
107 -108 0
107 -117 0
-107 108 117 0
-99 100 0
-99 107 0
99 -100 -107 0
3 -4 0
3 -99 0
-3 4 99 0
-124 101 0
124 -101 0
-125 39 0
125 -39 0
-123 124 0
-123 125 0
123 -124 -125 0
-129 54 0
129 -54 0
-130 54 0
130 -54 0
-128 129 0
-128 130 0
128 -129 -130 0
-132 61 0
132 -61 0
-133 54 0
133 -54 0
-131 132 0
-131 133 0
131 -132 -133 0
127 -128 0
127 -131 0
-127 128 131 0
-135 66 0
135 -66 0
-136 61 0
136 -61 0
-134 135 0
-134 136 0
134 -135 -136 0
126 -127 0
126 -134 0
-126 127 134 0
-122 123 0
-122 126 0
122 -123 -126 0
2 -3 0
2 -122 0
-2 3 122 0
-143 57 0
143 -57 0
-144 88 0
144 -88 0
-142 143 0
-142 144 0
142 -143 -144 0
-146 69 0
146 -69 0
-147 88 0
147 -88 0
-145 146 0
-145 147 0
145 -146 -147 0
141 -142 0
141 -145 0
-141 142 145 0
150 15 0
-150 -15 0
151 17 0
-151 -17 0
-149 150 0
-149 151 0
149 -150 -151 0
-152 96 0
152 -96 0
-148 149 0
-148 152 0
148 -149 -152 0
140 -141 0
140 -148 0
-140 141 148 0
-156 88 0
156 -88 0
-157 111 0
157 -111 0
-155 156 0
-155 157 0
155 -156 -157 0
-159 96 0
159 -96 0
-160 111 0
160 -111 0
-158 159 0
-158 160 0
158 -159 -160 0
154 -155 0
154 -158 0
-154 155 158 0
163 24 0
-163 -24 0
164 26 0
-164 -26 0
-162 163 0
-162 164 0
162 -163 -164 0
-165 119 0
165 -119 0
-161 162 0
-161 165 0
161 -162 -165 0
153 -154 0
153 -161 0
-153 154 161 0
-139 140 0
-139 153 0
139 -140 -153 0
-169 111 0
169 -111 0
-170 54 0
170 -54 0
-168 169 0
-168 170 0
168 -169 -170 0
-172 119 0
172 -119 0
-173 54 0
173 -54 0
-171 172 0
-171 173 0
171 -172 -173 0
167 -168 0
167 -171 0
-167 168 171 0
176 33 0
-176 -33 0
177 35 0
-177 -35 0
-175 176 0
-175 177 0
175 -176 -177 0
-178 61 0
178 -61 0
-174 175 0
-174 178 0
174 -175 -178 0
166 -167 0
166 -174 0
-166 167 174 0
-138 139 0
-138 166 0
138 -139 -166 0
-180 149 0
180 -149 0
-181 149 0
181 -149 0
179 -180 0
179 -181 0
-179 180 181 0
-137 138 0
-137 179 0
137 -138 -179 0
-1 2 0
-1 137 0
1 -2 -137 0
